55411
33 1 7621
1 27 4123
27 31 4460
31 25 299
25 11 545
11 45 436
45 52 722
52 15 631
15 36 679
36 46 402
46 39 214
39 16 451
16 10 734
10 22 117
22 29 544
29 21 516
21 9 1367
9 34 835
34 53 396
53 23 388
23 17 619
17 48 415
48 19 897
19 44 1282
44 8 383
8 38 368
38 50 1180
50 20 763
20 24 740
24 35 296
35 5 323
5 37 467
37 7 517
7 51 770
51 40 1042
40 43 1279
43 13 790
13 41 686
41 32 362
32 49 1801
49 3 1344
3 6 385
6 28 404
28 55 487
55 26 397
26 54 967
54 47 491
47 30 944
30 4 380
4 18 606
18 12 768
12 14 816
14 2 433
2 42 1722
42 33 4807
